
Gurobi 9.5.1 (mac64[x86], gurobi_cl) logging started Sun Nov 10 17:46:18 2024

Set parameter Username
Set parameter LogFile to value "gurobi.log"
Academic license - for non-commercial use only - expires 2025-09-17
Using license file /Users/fredericbusch/gurobi.lic

Gurobi 9.5.1 (mac64[x86], gurobi_cl) logging started Sun Nov 10 17:46:40 2024

Set parameter Username
Set parameter LogFile to value "gurobi.log"
Academic license - for non-commercial use only - expires 2025-09-17
Using license file /Users/fredericbusch/gurobi.lic

Gurobi 9.5.1 (mac64[x86], gurobi_cl) logging started Sun Nov 10 17:54:08 2024

Set parameter Username
Set parameter LogFile to value "gurobi.log"
Academic license - for non-commercial use only - expires 2025-09-17
Using license file /Users/fredericbusch/gurobi.lic

Gurobi 9.5.1 (mac64[x86], gurobi_cl) logging started Sun Nov 10 17:58:43 2024

Set parameter Username
Set parameter LogFile to value "gurobi.log"
Academic license - for non-commercial use only - expires 2025-09-17
Using license file /Users/fredericbusch/gurobi.lic

Gurobi 9.5.1 (mac64[x86], gurobi_cl) logging started Sun Nov 10 17:59:35 2024

Set parameter Username
Set parameter LogFile to value "gurobi.log"
Academic license - for non-commercial use only - expires 2025-09-17
Using license file /Users/fredericbusch/gurobi.lic

Gurobi 9.5.1 (mac64[x86], gurobi_cl) logging started Sun Nov 10 17:59:40 2024

Set parameter Username
Set parameter LogFile to value "gurobi.log"
Academic license - for non-commercial use only - expires 2025-09-17
Using license file /Users/fredericbusch/gurobi.lic

Gurobi 9.5.1 (mac64[x86], gurobi_cl) logging started Sun Nov 10 17:59:59 2024

Set parameter Username
Set parameter LogFile to value "gurobi.log"
Academic license - for non-commercial use only - expires 2025-09-17
Using license file /Users/fredericbusch/gurobi.lic

Gurobi 9.5.1 (mac64[x86], gurobi_cl) logging started Sun Nov 10 18:00:03 2024

Set parameter Username
Set parameter LogFile to value "gurobi.log"
Academic license - for non-commercial use only - expires 2025-09-17
Using license file /Users/fredericbusch/gurobi.lic

Gurobi 9.5.1 (mac64[x86], gurobi_cl) logging started Sun Nov 10 18:00:20 2024

Set parameter Username
Set parameter LogFile to value "gurobi.log"
Academic license - for non-commercial use only - expires 2025-09-17
Using license file /Users/fredericbusch/gurobi.lic

Gurobi 9.5.1 (mac64[x86], gurobi_cl) logging started Sun Nov 10 18:02:17 2024

Set parameter Username
Set parameter LogFile to value "gurobi.log"
Academic license - for non-commercial use only - expires 2025-09-17
Using license file /Users/fredericbusch/gurobi.lic
